benchmark_instances/dzn_benchmark_instances/benchmark_instance_5-5.dzn
% Input: sequence of points
seq_points = [|1,3
              |2,3
              |3,3
              |1,4
              |2,4
              |3,4
              |4,4
              |5,3
              |5,4
              |4,5
              |0,4
              |1,5
              |0,0
              |1,0
             |];

num_points = 14;
