benchmark_instances/lp_benchmark_instances/benchmark_instance_5-5.lp
% Input: sequence of points
point(1,3).
point(2,3).
point(3,3).
point(1,4).
point(2,4).
point(3,4).
point(4,4).
point(5,3).
point(5,4).
point(4,5).
point(0,4).
point(1,5).
point(0,0).
point(1,0).
